Problem:    sor
Rows:       13
Columns:    32
Non-zeros:  93
Status:     OPTIMAL
Objective:  Koltseg = 3220000 (MINimum)

   No.   Row name   St   Activity     Lower bound   Upper bound    Marginal
------ ------------ -- ------------- ------------- ------------- -------------
     1 Koltseg      B       3.22e+06                             
     2 Sopron_demand
                    NL           500           500                       < eps
     3 Veszprem_demand
                    NL          2000          2000                         145 
     4 Gyor_demand  NL          1500          1500                          90 
     5 Pecs_demand  NL          3000          3000                          30 
     6 BP_demand    NL         10000         10000                         220 
     7 Szeged_demand
                    NL          4000          4000                         215 
     8 Debrecen_demand
                    NL          3500          3500                         440 
     9 Miskolc_demand
                    NL          2500          2500                         400 
    10 Sopron_production
                    B           6000                        6000 
    11 Kobanya_production
                    NU         12000                       12000          -220 
    12 Pecs_production
                    NU          8000                        8000           -30 
    13 Nagykanizsa_production
                    NU          1000                        1000           -15 

   No. Column name  St   Activity     Lower bound   Upper bound    Marginal
------ ------------ -- ------------- ------------- ------------- -------------
     1 xSS          B            500             0               
     2 xSV          B           1000             0               
     3 xSGy         B           1500             0               
     4 xSP          NL             0             0                         245 
     5 xSBP         B           3000             0               
     6 xSSz         NL             0             0                         175 
     7 xSD          NL             0             0                          10 
     8 xSM          NL             0             0                       < eps
     9 xKS          NL             0             0                         440 
    10 xKV          NL             0             0                         200 
    11 xKGy         NL             0             0                         260 
    12 xKP          NL             0             0                         390 
    13 xKBP         B           7000             0               
    14 xKSz         NL             0             0                         175 
    15 xKD          B           2500             0               
    16 xKM          B           2500             0               
    17 xPS          NL             0             0                         305 
    18 xPV          NL             0             0                          45 
    19 xPGy         NL             0             0                         190 
    20 xPP          B           3000             0               
    21 xPBP         NL             0             0                          10 
    22 xPSz         B           4000             0               
    23 xPD          B           1000             0               
    24 xPM          NL             0             0                          55 
    25 xNKS         NL             0             0                         175 
    26 xNKV         B           1000             0               
    27 xNKGy        NL             0             0                         100 
    28 xNKP         NL             0             0                         125 
    29 xNKBP        NL             0             0                           5 
    30 xNKSz        NL             0             0                         110 
    31 xNKD         NL             0             0                          15 
    32 xNKM         NL             0             0                          35 

Karush-Kuhn-Tucker optimality conditions:

KKT.PE: max.abs.err = 0.00e+00 on row 0
        max.rel.err = 0.00e+00 on row 0
        High quality

KKT.PB: max.abs.err = 0.00e+00 on row 0
        max.rel.err = 0.00e+00 on row 0
        High quality

KKT.DE: max.abs.err = 0.00e+00 on column 0
        max.rel.err = 0.00e+00 on column 0
        High quality

KKT.DB: max.abs.err = 0.00e+00 on row 0
        max.rel.err = 0.00e+00 on row 0
        High quality

End of output
